Maximize
score: + 9 c0 + 81 c1 + 84 c2 + 45 c3 + 546 c4 + 460 c5 + 1092 c6 + 132 c7 + 242 c8 + 50 c9 + 169 c10 + 198 c11 + 502 c12 + 73 c13 + 104 c14 + 208 c15 + 187 c16

Subject To
index_0: 5 s36 + 1 s42 - c0 >= 0
index_1: 2 s16 + 1 s21 + 1 s24 + 1 s26 + 1 s28 + 1 s36 + 1 s41 + 1 s42 - c1 >= 0
index_2: 1 s16 + 1 s24 + 1 s25 + 5 s26 + 1 s39 + 1 s41 - c2 >= 0
index_3: 13 s14 - c3 >= 0
index_4: 1 s7 + 2 s16 + 1 s21 + 1 s26 + 1 s28 + 1 s31 + 1 s36 + 1 s39 + 1 s41 + 2 s42 + 1 s45 - c4 >= 0
index_5: 1 s0 + 1 s1 + 1 s2 + 1 s4 + 1 s5 + 1 s6 + 1 s10 + 1 s11 + 1 s14 + 1 s18 - c5 >= 0
index_6: 1 s8 + 1 s9 + 2 s14 + 1 s21 + 1 s22 + 1 s24 + 1 s26 + 1 s27 + 1 s28 + 1 s29 + 1 s30 + 1 s31 + 1 s32 + 1 s36 + 1 s37 + 1 s38 + 1 s39 + 1 s41 + 2 s42 + 1 s43 + 1 s44 + 1 s45 - c6 >= 0
index_7: 2 s7 + 1 s21 + 1 s28 + 1 s31 + 1 s36 + 1 s42 - c7 >= 0
index_8: 1 s0 + 4 s2 + 1 s7 + 2 s12 + 3 s13 + 2 s14 + 2 s16 + 2 s18 + 4 s21 + 3 s24 + 1 s28 + 1 s31 + 2 s34 + 1 s36 + 2 s39 + 1 s41 + 1 s42 - c8 >= 0
index_9: 1 s2 + 1 s7 + 1 s28 + 1 s31 + 1 s36 - c9 >= 0
index_10: 1 s2 + 1 s5 + 1 s10 + 2 s14 + 2 s16 + 1 s21 + 3 s26 + 1 s36 + 1 s39 - c10 >= 0
index_11: 4 s26 + 1 s31 + 2 s36 + 1 s39 + 1 s41 - c11 >= 0
index_12: 3 s2 + 2 s5 + 3 s10 + 4 s12 + 1 s13 + 11 s14 + 5 s16 + 3 s21 + 3 s26 + 1 s36 + 1 s39 - c12 >= 0
index_13: 4 s26 + 1 s31 + 1 s36 + 1 s39 - c13 >= 0
index_14: 1 s2 + 1 s5 + 1 s10 + 2 s14 + 2 s16 + 1 s21 - c14 >= 0
index_15: 1 s2 + 1 s5 + 1 s10 + 2 s14 + 2 s16 + 1 s21 + 3 s26 + 1 s36 + 1 s39 - c15 >= 0
index_16: 1 s5 + 1 s10 + 1 s16 + 1 s21 + 4 s26 + 1 s31 + 1 s36 + 1 s39 - c16 >= 0
length: 8 s0 + 11 s1 + 58 s2 + 4 s3 + 1 s4 + 44 s5 + 8 s6 + 43 s7 + 1 s8 + 1 s9 + 81 s10 + 11 s11 + 150 s12 + 107 s13 + 494 s14 + 11 s15 + 166 s16 + 10 s17 + 54 s18 + 29 s19 + 8 s20 + 260 s21 + 1 s22 + 1 s23 + 145 s24 + 13 s25 + 678 s26 + 26 s27 + 77 s28 + 1 s29 + 1 s30 + 96 s31 + 1 s32 + 1 s33 + 102 s34 + 15 s35 + 304 s36 + 1 s37 + 1 s38 + 319 s39 + 18 s40 + 263 s41 + 177 s42 + 1 s43 + 1 s44 + 94 s45 <= 1948



Binary
c0
c1
c2
c3
c4
c5
c6
c7
c8
c9
c10
c11
c12
c13
c14
c15
c16
s0
s1
s2
s3
s4
s5
s6
s7
s8
s9
s10
s11
s12
s13
s14
s15
s16
s17
s18
s19
s20
s21
s22
s23
s24
s25
s26
s27
s28
s29
s30
s31
s32
s33
s34
s35
s36
s37
s38
s39
s40
s41
s42
s43
s44
s45
End